c uprop, v00.0, 
c reading from data/prog581.c.cnf
c done reading: 0.005469
p cnf 104 414
-54 -73 0
54 73 0
-58 -61 0
58 61 0
-62 -68 0
62 68 0
-57 -70 0
57 70 0
-65 -75 0
65 75 0
-78 -81 0
78 81 0
54 -83 0
-54 83 0
-51 -54 0
51 54 0
48 -58 0
48 -58 -83 0
48 -83 0
-48 58 83 0
-46 -48 58 0
-46 -48 83 0
46 48 -58 0
46 48 0
46 48 -83 0
46 -58 -83 0
43 -54 -62 0
43 -48 -62 0
43 -48 -54 0
-43 54 62 0
-43 48 62 0
-43 48 54 0
-41 -43 62 0
-41 -43 54 0
-41 -43 48 0
41 43 -62 0
41 43 -54 0
41 43 -48 0
41 -48 -54 -62 0
-41 48 54 62 0
39 -58 -70 0
39 -43 -70 0
39 -43 -58 0
-39 58 70 0
-39 43 70 0
-39 43 58 0
-38 -39 70 0
-38 -39 58 0
-38 -39 43 0
38 39 -70 0
38 39 -58 0
38 39 -43 0
38 -43 -58 -70 0
-38 43 58 70 0
37 -62 -75 0
37 -39 -75 0
37 -39 -62 0
-37 62 75 0
-37 39 75 0
-37 39 62 0
-36 -37 75 0
-36 -37 62 0
-36 -37 39 0
36 37 -75 0
36 37 -62 0
36 37 -39 0
36 -39 -62 -75 0
-36 39 62 75 0
35 -70 -81 0
35 -37 -81 0
35 -37 -70 0
-35 70 81 0
-35 37 81 0
-35 37 70 0
-34 -35 81 0
-34 -35 70 0
-34 -35 37 0
34 35 -81 0
34 35 -70 0
34 35 -37 0
34 -37 -70 -81 0
-34 37 70 81 0
-33 75 0
-33 35 0
33 -35 -75 0
-32 -35 -75 0
-32 35 75 0
32 35 -75 0
32 -35 75 0
-53 81 0
33 -53 0
-33 53 -81 0
-33 -55 -81 0
33 -55 81 0
33 55 -81 0
-33 55 81 0
41 -59 0
-41 59 0
-41 -63 0
41 63 0
-38 71 0
-38 -59 71 0
-59 71 0
38 59 -71 0
38 -71 -76 0
59 -71 -76 0
-38 71 76 0
71 76 0
-59 71 76 0
-38 -59 76 0
-36 -54 82 0
-36 -71 82 0
-54 -71 82 0
36 54 -82 0
36 71 -82 0
54 71 -82 0
36 -82 -85 0
54 -82 -85 0
71 -82 -85 0
-36 82 85 0
-54 82 85 0
-71 82 85 0
-36 -54 -71 85 0
36 54 71 -85 0
-34 -58 88 0
-34 -82 88 0
-58 -82 88 0
34 58 -88 0
34 82 -88 0
58 82 -88 0
34 -88 -91 0
58 -88 -91 0
82 -88 -91 0
-34 88 91 0
-58 88 91 0
-82 88 91 0
-34 -58 -82 91 0
34 58 82 -91 0
-32 -62 94 0
-32 -88 94 0
-62 -88 94 0
32 62 -94 0
32 88 -94 0
62 88 -94 0
-32 94 0
-62 94 0
-88 94 0
-32 -62 -88 0
-55 -70 96 0
-55 -94 96 0
-70 -94 96 0
55 70 -96 0
55 94 -96 0
70 94 -96 0
-55 96 0
-70 96 0
-94 96 0
-55 -70 -94 0
-53 -75 97 0
-53 -96 97 0
-75 -96 97 0
53 75 -97 0
53 96 -97 0
75 96 -97 0
-53 97 0
-75 97 0
-96 97 0
-53 -75 -96 0
-81 -97 0
-81 97 0
81 -97 0
-51 -98 0
51 98 0
-46 -99 0
46 99 0
-63 -100 0
63 100 0
-76 -101 0
76 101 0
-85 -102 0
85 102 0
-91 -103 0
91 103 0
-66 -87 0
-66 -90 0
66 87 90 0
87 90 -104 0
-87 -90 -104 0
-87 90 104 0
87 -90 104 0
66 -79 0
-79 -93 0
-66 79 93 0
-66 -84 93 0
66 -84 -93 0
66 84 93 0
-66 84 -93 0
-52 79 0
-52 -95 0
52 -79 95 0
-49 -79 95 0
-49 79 -95 0
49 79 95 0
49 -79 -95 0
-47 52 0
47 -52 0
-44 -52 0
44 52 0
-42 47 0
42 -47 0
-40 -47 0
40 47 0
-31 42 0
31 -42 0
-30 -42 0
30 42 0
-29 31 0
29 -31 0
-28 -31 0
28 31 0
-27 90 0
-27 87 0
27 -87 -90 0
-26 -87 -90 0
-26 87 90 0
26 87 -90 0
26 -87 90 0
25 -90 -93 0
25 -27 -93 0
25 -27 -90 0
-25 90 93 0
-25 27 93 0
-25 27 90 0
-24 -25 93 0
-24 -25 90 0
-24 -25 27 0
24 25 -93 0
24 25 -90 0
24 25 -27 0
24 -27 -90 -93 0
-24 27 90 93 0
23 -93 -95 0
23 -25 -95 0
23 -25 -93 0
-23 93 95 0
-23 25 95 0
-23 25 93 0
-22 -23 95 0
-22 -23 93 0
-22 -23 25 0
22 23 -95 0
22 23 -93 0
22 23 -25 0
22 -25 -93 -95 0
-22 25 93 95 0
21 -23 -95 0
-21 95 0
-21 23 0
-21 23 95 0
-20 -21 0
-20 -21 95 0
-20 -21 23 0
20 21 -95 0
20 21 -23 0
-20 23 95 0
19 -21 0
-19 21 0
24 -69 0
-69 87 0
-24 69 -87 0
-24 -74 -87 0
24 -74 87 0
-24 74 87 0
24 74 -87 0
-22 80 -90 0
-22 -69 80 0
-69 80 -90 0
22 -80 90 0
22 69 -80 0
69 -80 90 0
22 -80 -86 0
-80 -86 90 0
69 -80 -86 0
-22 80 86 0
80 86 -90 0
-69 80 86 0
-22 -69 86 -90 0
22 69 -86 90 0
-20 89 -93 0
-20 -80 89 0
-80 89 -93 0
20 -89 93 0
20 80 -89 0
80 -89 93 0
20 -89 -92 0
-89 -92 93 0
80 -89 -92 0
-20 89 92 0
89 92 -93 0
-80 89 92 0
-20 -80 92 -93 0
20 80 -92 93 0
-19 -95 0
-19 -89 0
-89 -95 0
18 -19 0
18 -95 0
18 -89 0
18 -19 -89 -95 0
-18 19 89 95 0
-17 -87 0
-17 -26 0
17 26 87 0
-16 26 87 0
-16 -26 -87 0
16 26 -87 0
16 -26 87 0
-15 17 0
-15 -74 0
15 -17 74 0
-14 -17 74 0
-14 17 -74 0
14 17 74 0
14 -17 -74 0
-13 15 0
-13 -86 0
13 -15 86 0
-12 -15 86 0
-12 15 -86 0
12 15 86 0
12 -15 -86 0
-11 13 0
-11 -92 0
11 -13 92 0
-10 -13 92 0
-10 13 -92 0
10 13 92 0
10 -13 -92 0
-9 11 0
-9 -18 0
9 -11 18 0
-8 -11 18 0
-8 11 -18 0
8 11 18 0
8 -11 -18 0
-7 9 0
7 -9 0
-6 -9 0
6 9 0
-5 7 0
5 -7 0
-4 -7 0
4 7 0
5 -72 0
-5 72 0
-3 -5 0
3 5 0
-60 72 0
60 -72 0
-2 -72 0
2 72 0
60 -67 0
-60 67 0
-1 -60 0
1 60 0
51 -56 0
-56 87 0
-51 56 -87 0
-51 -87 0
51 87 0
-26 -46 64 0
-46 -56 64 0
-26 -56 64 0
26 46 -64 0
46 56 -64 0
26 56 -64 0
46 -64 0
26 -64 0
56 -64 0
26 46 56 0
-63 -74 77 0
-63 -64 77 0
-64 -74 77 0
63 74 -77 0
63 64 -77 0
64 74 -77 0
63 -77 0
74 -77 0
64 -77 0
63 64 74 0
50 -76 -86 0
50 -76 -77 0
50 -77 -86 0
-50 76 86 0
-50 76 77 0
-50 77 86 0
-50 76 0
-50 86 0
-50 77 0
76 77 86 0
45 -85 -92 0
45 -50 -85 0
45 -50 -92 0
-45 85 92 0
-45 50 85 0
-45 50 92 0
-45 85 0
-45 92 0
-45 50 0
50 85 92 0
-18 -91 0
-45 -91 0
-18 -45 0
18 45 91 0
